c "591723.clq"
p edge 251 3760
e 1 17
e 1 18
e 1 19
e 1 20
e 1 21
e 1 22
e 1 23
e 1 24
e 1 25
e 1 26
e 1 27
e 1 28
e 1 31
e 1 32
e 1 34
e 1 35
e 1 36
e 1 38
e 1 43
e 1 46
e 1 47
e 1 53
e 1 64
e 1 65
e 1 69
e 1 70
e 1 72
e 1 75
e 1 79
e 1 81
e 1 98
e 1 100
e 1 104
e 1 106
e 1 108
e 1 117
e 1 118
e 1 135
e 1 137
e 1 173
e 1 179
e 1 185
e 1 188
e 1 207
e 1 211
e 1 224
e 1 238
e 1 241
e 2 17
e 2 18
e 2 19
e 2 20
e 2 21
e 2 22
e 2 23
e 2 24
e 2 25
e 2 26
e 2 28
e 2 29
e 2 30
e 2 31
e 2 32
e 2 33
e 2 34
e 2 38
e 2 41
e 2 44
e 2 45
e 2 51
e 2 57
e 2 60
e 2 62
e 2 69
e 2 77
e 2 78
e 2 81
e 2 87
e 2 93
e 2 94
e 2 95
e 2 96
e 2 103
e 2 112
e 2 114
e 2 116
e 2 122
e 2 125
e 2 127
e 2 129
e 2 132
e 2 137
e 2 143
e 2 146
e 2 149
e 2 152
e 2 157
e 2 165
e 2 175
e 2 179
e 2 182
e 2 183
e 2 192
e 2 193
e 2 228
e 2 245
e 3 17
e 3 19
e 3 25
e 3 30
e 3 31
e 3 35
e 3 48
e 3 60
e 3 67
e 3 68
e 3 91
e 3 92
e 3 121
e 3 127
e 3 146
e 3 160
e 3 167
e 3 171
e 3 193
e 4 17
e 4 18
e 4 22
e 4 24
e 4 31
e 4 34
e 4 41
e 4 45
e 4 52
e 4 62
e 4 69
e 4 72
e 4 80
e 4 82
e 4 93
e 4 107
e 4 142
e 4 173
e 4 182
e 4 188
e 5 17
e 5 18
e 5 20
e 5 21
e 5 23
e 5 24
e 5 25
e 5 26
e 5 27
e 5 28
e 5 29
e 5 34
e 5 35
e 5 45
e 5 55
e 5 57
e 5 59
e 5 66
e 5 68
e 5 69
e 5 70
e 5 71
e 5 89
e 5 100
e 5 103
e 5 106
e 5 112
e 5 123
e 5 129
e 5 148
e 5 164
e 5 176
e 5 181
e 5 209
e 5 251
e 6 17
e 6 18
e 6 19
e 6 21
e 6 22
e 6 23
e 6 26
e 6 36
e 6 38
e 6 44
e 6 50
e 6 55
e 6 111
e 6 173
e 6 180
e 6 203
e 6 215
e 6 244
e 7 17
e 7 18
e 7 19
e 7 20
e 7 21
e 7 22
e 7 23
e 7 24
e 7 25
e 7 26
e 7 28
e 7 30
e 7 37
e 7 41
e 7 57
e 7 59
e 7 63
e 7 72
e 7 73
e 7 89
e 7 113
e 7 116
e 7 121
e 7 122
e 7 131
e 7 147
e 7 151
e 7 156
e 7 159
e 7 163
e 7 167
e 7 181
e 7 196
e 7 203
e 7 211
e 8 17
e 8 18
e 8 19
e 8 20
e 8 21
e 8 22
e 8 23
e 8 25
e 8 27
e 8 29
e 8 30
e 8 31
e 8 33
e 8 34
e 8 35
e 8 38
e 8 41
e 8 43
e 8 46
e 8 66
e 8 67
e 8 83
e 8 88
e 8 92
e 8 94
e 8 96
e 8 107
e 8 113
e 8 114
e 8 115
e 8 123
e 8 129
e 8 131
e 8 135
e 8 136
e 8 137
e 8 138
e 8 144
e 8 167
e 8 169
e 8 180
e 8 188
e 8 193
e 8 194
e 8 198
e 8 201
e 8 205
e 8 210
e 8 211
e 8 246
e 8 251
e 9 17
e 9 18
e 9 19
e 9 20
e 9 21
e 9 29
e 9 32
e 9 37
e 9 44
e 9 48
e 9 57
e 9 61
e 9 95
e 9 107
e 9 113
e 9 117
e 9 119
e 9 122
e 9 130
e 9 139
e 9 145
e 9 157
e 9 192
e 9 195
e 9 226
e 9 240
e 10 17
e 10 18
e 10 19
e 10 20
e 10 21
e 10 22
e 10 23
e 10 24
e 10 26
e 10 28
e 10 33
e 10 43
e 10 44
e 10 46
e 10 51
e 10 53
e 10 57
e 10 64
e 10 68
e 10 74
e 10 79
e 10 83
e 10 86
e 10 89
e 10 91
e 10 98
e 10 102
e 10 131
e 10 132
e 10 140
e 10 143
e 10 148
e 10 152
e 10 165
e 10 171
e 10 173
e 10 190
e 10 197
e 10 215
e 10 229
e 10 231
e 10 232
e 10 247
e 11 17
e 11 18
e 11 19
e 11 20
e 11 21
e 11 22
e 11 23
e 11 24
e 11 25
e 11 26
e 11 27
e 11 36
e 11 45
e 11 49
e 11 56
e 11 65
e 11 86
e 11 89
e 11 90
e 11 108
e 11 120
e 11 128
e 11 130
e 11 140
e 11 157
e 11 162
e 11 171
e 11 174
e 11 189
e 11 190
e 11 191
e 11 198
e 11 206
e 11 222
e 11 230
e 11 247
e 12 17
e 12 18
e 12 19
e 12 20
e 12 22
e 12 25
e 12 29
e 12 31
e 12 38
e 12 41
e 12 50
e 12 54
e 12 65
e 12 68
e 12 70
e 12 86
e 12 89
e 12 93
e 12 102
e 12 104
e 12 107
e 12 113
e 12 125
e 12 141
e 12 149
e 12 176
e 12 179
e 12 181
e 12 191
e 12 240
e 12 243
e 12 248
e 12 250
e 13 17
e 13 18
e 13 19
e 13 20
e 13 27
e 13 28
e 13 30
e 13 31
e 13 32
e 13 33
e 13 35
e 13 36
e 13 37
e 13 43
e 13 53
e 13 65
e 13 67
e 13 70
e 13 72
e 13 73
e 13 74
e 13 77
e 13 78
e 13 80
e 13 81
e 13 87
e 13 89
e 13 90
e 13 96
e 13 111
e 13 115
e 13 121
e 13 127
e 13 155
e 13 156
e 13 165
e 13 169
e 13 182
e 13 195
e 13 201
e 13 203
e 13 206
e 13 232
e 13 237
e 13 238
e 14 17
e 14 18
e 14 19
e 14 20
e 14 21
e 14 22
e 14 23
e 14 25
e 14 31
e 14 33
e 14 37
e 14 39
e 14 40
e 14 41
e 14 44
e 14 46
e 14 50
e 14 54
e 14 55
e 14 58
e 14 63
e 14 77
e 14 84
e 14 87
e 14 100
e 14 106
e 14 115
e 14 117
e 14 126
e 14 132
e 14 134
e 14 142
e 14 152
e 14 178
e 14 179
e 14 202
e 14 210
e 14 218
e 14 220
e 14 241
e 14 244
e 15 17
e 15 18
e 15 19
e 15 20
e 15 21
e 15 22
e 15 24
e 15 26
e 15 27
e 15 29
e 15 32
e 15 33
e 15 36
e 15 38
e 15 39
e 15 42
e 15 43
e 15 45
e 15 47
e 15 49
e 15 54
e 15 55
e 15 57
e 15 60
e 15 61
e 15 70
e 15 78
e 15 82
e 15 87
e 15 109
e 15 110
e 15 112
e 15 114
e 15 122
e 15 127
e 15 134
e 15 140
e 15 143
e 15 147
e 15 158
e 15 159
e 15 163
e 15 178
e 15 191
e 15 199
e 15 200
e 15 217
e 15 231
e 16 17
e 16 18
e 16 19
e 16 20
e 16 21
e 16 23
e 16 24
e 16 26
e 16 28
e 16 31
e 16 34
e 16 40
e 16 42
e 16 51
e 16 55
e 16 58
e 16 59
e 16 60
e 16 64
e 16 65
e 16 68
e 16 73
e 16 74
e 16 75
e 16 79
e 16 81
e 16 82
e 16 88
e 16 105
e 16 123
e 16 130
e 16 149
e 16 179
e 16 180
e 16 183
e 16 186
e 16 200
e 16 225
e 16 229
e 16 243
e 16 251
e 17 18
e 17 19
e 17 20
e 17 21
e 17 22
e 17 23
e 17 24
e 17 25
e 17 26
e 17 27
e 17 28
e 17 29
e 17 30
e 17 32
e 17 33
e 17 34
e 17 35
e 17 36
e 17 37
e 17 38
e 17 39
e 17 40
e 17 42
e 17 43
e 17 44
e 17 45
e 17 46
e 17 47
e 17 48
e 17 49
e 17 51
e 17 53
e 17 54
e 17 57
e 17 58
e 17 59
e 17 62
e 17 63
e 17 64
e 17 65
e 17 66
e 17 67
e 17 68
e 17 76
e 17 77
e 17 83
e 17 85
e 17 87
e 17 90
e 17 92
e 17 93
e 17 96
e 17 97
e 17 99
e 17 101
e 17 103
e 17 104
e 17 105
e 17 106
e 17 107
e 17 109
e 17 111
e 17 113
e 17 116
e 17 117
e 17 124
e 17 128
e 17 130
e 17 131
e 17 135
e 17 138
e 17 139
e 17 141
e 17 145
e 17 147
e 17 149
e 17 150
e 17 164
e 17 167
e 17 168
e 17 169
e 17 172
e 17 174
e 17 177
e 17 179
e 17 186
e 17 187
e 17 189
e 17 190
e 17 201
e 17 204
e 17 208
e 17 212
e 17 215
e 17 216
e 17 228
e 17 234
e 17 249
e 17 251
e 18 19
e 18 20
e 18 21
e 18 22
e 18 23
e 18 24
e 18 25
e 18 26
e 18 27
e 18 28
e 18 29
e 18 30
e 18 31
e 18 36
e 18 37
e 18 39
e 18 40
e 18 41
e 18 42
e 18 44
e 18 45
e 18 46
e 18 47
e 18 49
e 18 50
e 18 52
e 18 53
e 18 63
e 18 69
e 18 71
e 18 74
e 18 75
e 18 76
e 18 84
e 18 86
e 18 90
e 18 94
e 18 97
e 18 102
e 18 104
e 18 108
e 18 109
e 18 136
e 18 139
e 18 140
e 18 142
e 18 153
e 18 155
e 18 160
e 18 161
e 18 162
e 18 167
e 18 168
e 18 171
e 18 173
e 18 176
e 18 178
e 18 189
e 18 196
e 18 199
e 18 202
e 18 204
e 18 212
e 18 216
e 18 224
e 18 227
e 18 229
e 18 232
e 18 236
e 18 239
e 18 242
e 18 243
e 18 246
e 19 20
e 19 21
e 19 22
e 19 23
e 19 24
e 19 25
e 19 26
e 19 27
e 19 28
e 19 29
e 19 32
e 19 33
e 19 34
e 19 35
e 19 39
e 19 40
e 19 43
e 19 44
e 19 46
e 19 48
e 19 52
e 19 56
e 19 58
e 19 59
e 19 61
e 19 62
e 19 63
e 19 69
e 19 70
e 19 75
e 19 77
e 19 80
e 19 85
e 19 87
e 19 88
e 19 96
e 19 106
e 19 107
e 19 109
e 19 110
e 19 111
e 19 114
e 19 116
e 19 117
e 19 119
e 19 121
e 19 124
e 19 127
e 19 130
e 19 131
e 19 133
e 19 134
e 19 135
e 19 139
e 19 141
e 19 149
e 19 156
e 19 158
e 19 160
e 19 163
e 19 167
e 19 168
e 19 171
e 19 175
e 19 187
e 19 197
e 19 200
e 19 209
e 19 217
e 19 226
e 19 231
e 19 241
e 19 244
e 20 21
e 20 22
e 20 23
e 20 24
e 20 25
e 20 26
e 20 27
e 20 28
e 20 29
e 20 30
e 20 31
e 20 32
e 20 33
e 20 34
e 20 37
e 20 38
e 20 39
e 20 40
e 20 41
e 20 42
e 20 43
e 20 48
e 20 49
e 20 52
e 20 53
e 20 56
e 20 61
e 20 64
e 20 66
e 20 67
e 20 68
e 20 69
e 20 71
e 20 73
e 20 74
e 20 76
e 20 78
e 20 85
e 20 86
e 20 93
e 20 96
e 20 101
e 20 104
e 20 105
e 20 110
e 20 117
e 20 122
e 20 128
e 20 134
e 20 137
e 20 138
e 20 139
e 20 143
e 20 146
e 20 147
e 20 151
e 20 161
e 20 167
e 20 175
e 20 184
e 20 193
e 20 194
e 20 197
e 20 199
e 20 210
e 20 216
e 20 220
e 20 224
e 20 234
e 20 235
e 20 239
e 20 245
e 21 22
e 21 23
e 21 24
e 21 26
e 21 27
e 21 28
e 21 29
e 21 30
e 21 32
e 21 33
e 21 35
e 21 36
e 21 38
e 21 40
e 21 43
e 21 45
e 21 46
e 21 47
e 21 48
e 21 52
e 21 53
e 21 57
e 21 59
e 21 60
e 21 62
e 21 63
e 21 65
e 21 68
e 21 70
e 21 74
e 21 75
e 21 77
e 21 82
e 21 90
e 21 92
e 21 96
e 21 98
e 21 102
e 21 110
e 21 113
e 21 114
e 21 116
e 21 117
e 21 119
e 21 120
e 21 122
e 21 123
e 21 124
e 21 127
e 21 129
e 21 130
e 21 136
e 21 140
e 21 143
e 21 149
e 21 150
e 21 152
e 21 159
e 21 160
e 21 162
e 21 165
e 21 167
e 21 168
e 21 171
e 21 177
e 21 179
e 21 180
e 21 181
e 21 189
e 21 194
e 21 206
e 21 211
e 21 214
e 21 216
e 21 229
e 21 240
e 22 23
e 22 24
e 22 25
e 22 27
e 22 29
e 22 30
e 22 32
e 22 34
e 22 35
e 22 36
e 22 37
e 22 38
e 22 39
e 22 40
e 22 41
e 22 43
e 22 44
e 22 47
e 22 48
e 22 52
e 22 56
e 22 57
e 22 58
e 22 62
e 22 64
e 22 66
e 22 68
e 22 73
e 22 76
e 22 81
e 22 84
e 22 85
e 22 87
e 22 93
e 22 97
e 22 102
e 22 104
e 22 106
e 22 111
e 22 112
e 22 117
e 22 118
e 22 125
e 22 130
e 22 131
e 22 133
e 22 134
e 22 137
e 22 141
e 22 157
e 22 159
e 22 160
e 22 170
e 22 173
e 22 174
e 22 175
e 22 177
e 22 182
e 22 183
e 22 190
e 22 195
e 22 201
e 22 203
e 22 205
e 22 210
e 22 213
e 22 215
e 22 219
e 22 220
e 22 236
e 22 238
e 22 242
e 23 24
e 23 25
e 23 26
e 23 27
e 23 28
e 23 29
e 23 30
e 23 36
e 23 41
e 23 42
e 23 43
e 23 45
e 23 47
e 23 50
e 23 51
e 23 52
e 23 55
e 23 57
e 23 58
e 23 61
e 23 66
e 23 67
e 23 72
e 23 73
e 23 75
e 23 76
e 23 77
e 23 78
e 23 79
e 23 86
e 23 88
e 23 92
e 23 93
e 23 95
e 23 99
e 23 101
e 23 102
e 23 106
e 23 112
e 23 113
e 23 118
e 23 122
e 23 124
e 23 127
e 23 145
e 23 155
e 23 159
e 23 160
e 23 163
e 23 167
e 23 172
e 23 178
e 23 188
e 23 192
e 23 204
e 23 205
e 23 211
e 23 213
e 23 224
e 23 225
e 23 228
e 23 230
e 23 233
e 23 240
e 23 241
e 23 248
e 24 25
e 24 27
e 24 28
e 24 30
e 24 31
e 24 32
e 24 33
e 24 35
e 24 36
e 24 39
e 24 42
e 24 44
e 24 47
e 24 48
e 24 50
e 24 51
e 24 56
e 24 67
e 24 70
e 24 77
e 24 78
e 24 82
e 24 84
e 24 86
e 24 88
e 24 91
e 24 92
e 24 96
e 24 98
e 24 100
e 24 103
e 24 104
e 24 111
e 24 112
e 24 116
e 24 118
e 24 119
e 24 123
e 24 132
e 24 137
e 24 141
e 24 150
e 24 157
e 24 161
e 24 162
e 24 172
e 24 184
e 24 196
e 24 197
e 24 198
e 24 202
e 24 206
e 24 212
e 24 215
e 24 221
e 24 225
e 24 229
e 24 242
e 24 244
e 24 246
e 24 249
e 25 26
e 25 27
e 25 28
e 25 30
e 25 32
e 25 37
e 25 39
e 25 40
e 25 45
e 25 47
e 25 48
e 25 49
e 25 52
e 25 53
e 25 54
e 25 55
e 25 56
e 25 57
e 25 58
e 25 59
e 25 61
e 25 63
e 25 69
e 25 80
e 25 82
e 25 83
e 25 84
e 25 92
e 25 97
e 25 100
e 25 101
e 25 108
e 25 109
e 25 113
e 25 116
e 25 131
e 25 139
e 25 142
e 25 153
e 25 154
e 25 167
e 25 169
e 25 198
e 25 208
e 25 209
e 25 212
e 25 214
e 25 219
e 25 228
e 25 237
e 25 246
e 26 27
e 26 28
e 26 29
e 26 30
e 26 31
e 26 32
e 26 33
e 26 37
e 26 38
e 26 39
e 26 40
e 26 42
e 26 46
e 26 49
e 26 50
e 26 51
e 26 53
e 26 56
e 26 58
e 26 59
e 26 63
e 26 65
e 26 66
e 26 70
e 26 72
e 26 76
e 26 87
e 26 89
e 26 91
e 26 102
e 26 104
e 26 107
e 26 110
e 26 120
e 26 126
e 26 128
e 26 146
e 26 147
e 26 153
e 26 161
e 26 166
e 26 170
e 26 173
e 26 182
e 26 184
e 26 187
e 26 190
e 26 199
e 26 203
e 26 206
e 26 220
e 26 221
e 26 232
e 26 236
e 26 238
e 26 239
e 26 241
e 27 29
e 27 31
e 27 32
e 27 34
e 27 35
e 27 36
e 27 37
e 27 38
e 27 39
e 27 41
e 27 42
e 27 46
e 27 47
e 27 49
e 27 50
e 27 51
e 27 52
e 27 53
e 27 54
e 27 55
e 27 60
e 27 64
e 27 66
e 27 70
e 27 76
e 27 77
e 27 80
e 27 81
e 27 85
e 27 88
e 27 93
e 27 115
e 27 116
e 27 117
e 27 119
e 27 121
e 27 129
e 27 131
e 27 139
e 27 145
e 27 149
e 27 153
e 27 175
e 27 182
e 27 184
e 27 194
e 27 198
e 27 200
e 27 210
e 27 213
e 27 218
e 27 230
e 27 238
e 27 249
e 28 29
e 28 30
e 28 32
e 28 33
e 28 34
e 28 35
e 28 36
e 28 37
e 28 38
e 28 41
e 28 45
e 28 46
e 28 48
e 28 49
e 28 50
e 28 51
e 28 53
e 28 54
e 28 59
e 28 62
e 28 64
e 28 68
e 28 71
e 28 72
e 28 73
e 28 80
e 28 81
e 28 85
e 28 86
e 28 89
e 28 91
e 28 93
e 28 96
e 28 99
e 28 106
e 28 107
e 28 109
e 28 117
e 28 119
e 28 124
e 28 125
e 28 130
e 28 132
e 28 136
e 28 138
e 28 140
e 28 143
e 28 147
e 28 149
e 28 150
e 28 156
e 28 166
e 28 172
e 28 176
e 28 177
e 28 182
e 28 192
e 28 195
e 28 200
e 28 206
e 28 212
e 28 214
e 28 223
e 28 236
e 28 237
e 28 238
e 28 245
e 29 30
e 29 31
e 29 33
e 29 34
e 29 35
e 29 36
e 29 37
e 29 42
e 29 44
e 29 45
e 29 52
e 29 54
e 29 56
e 29 62
e 29 66
e 29 69
e 29 73
e 29 74
e 29 75
e 29 77
e 29 93
e 29 95
e 29 102
e 29 105
e 29 131
e 29 142
e 29 151
e 29 161
e 29 164
e 29 166
e 29 173
e 29 175
e 29 192
e 29 207
e 29 210
e 29 219
e 29 224
e 29 226
e 29 242
e 29 243
e 29 244
e 30 31
e 30 32
e 30 34
e 30 35
e 30 36
e 30 39
e 30 42
e 30 45
e 30 46
e 30 47
e 30 49
e 30 50
e 30 53
e 30 58
e 30 63
e 30 64
e 30 66
e 30 67
e 30 72
e 30 73
e 30 75
e 30 76
e 30 79
e 30 83
e 30 85
e 30 89
e 30 90
e 30 92
e 30 93
e 30 94
e 30 98
e 30 99
e 30 103
e 30 110
e 30 113
e 30 115
e 30 120
e 30 122
e 30 125
e 30 135
e 30 137
e 30 138
e 30 162
e 30 164
e 30 169
e 30 174
e 30 176
e 30 181
e 30 182
e 30 188
e 30 190
e 30 193
e 30 198
e 30 199
e 30 202
e 30 208
e 30 221
e 30 225
e 30 226
e 30 233
e 30 237
e 30 245
e 31 33
e 31 34
e 31 35
e 31 38
e 31 40
e 31 42
e 31 46
e 31 48
e 31 49
e 31 54
e 31 60
e 31 64
e 31 73
e 31 75
e 31 78
e 31 80
e 31 90
e 31 96
e 31 98
e 31 101
e 31 105
e 31 115
e 31 119
e 31 125
e 31 136
e 31 140
e 31 142
e 31 151
e 31 165
e 31 168
e 31 170
e 31 182
e 31 193
e 31 203
e 31 205
e 31 227
e 31 229
e 31 236
e 31 238
e 31 251
e 32 33
e 32 36
e 32 37
e 32 39
e 32 41
e 32 42
e 32 43
e 32 44
e 32 45
e 32 48
e 32 50
e 32 51
e 32 55
e 32 61
e 32 65
e 32 66
e 32 67
e 32 71
e 32 79
e 32 80
e 32 82
e 32 85
e 32 94
e 32 96
e 32 97
e 32 99
e 32 100
e 32 103
e 32 107
e 32 111
e 32 114
e 32 123
e 32 124
e 32 133
e 32 145
e 32 148
e 32 156
e 32 169
e 32 177
e 32 189
e 32 204
e 32 208
e 32 234
e 32 249
e 32 251
e 33 34
e 33 37
e 33 41
e 33 50
e 33 55
e 33 56
e 33 72
e 33 80
e 33 88
e 33 98
e 33 110
e 33 114
e 33 126
e 33 131
e 33 133
e 33 136
e 33 140
e 33 141
e 33 144
e 33 165
e 33 166
e 33 179
e 33 185
e 33 186
e 33 189
e 33 196
e 33 200
e 33 208
e 33 233
e 33 243
e 34 35
e 34 38
e 34 40
e 34 41
e 34 44
e 34 47
e 34 50
e 34 51
e 34 52
e 34 72
e 34 78
e 34 80
e 34 84
e 34 89
e 34 96
e 34 97
e 34 98
e 34 108
e 34 120
e 34 125
e 34 126
e 34 134
e 34 140
e 34 146
e 34 157
e 34 165
e 34 170
e 34 173
e 34 177
e 34 180
e 34 183
e 34 184
e 34 201
e 34 205
e 34 209
e 34 224
e 34 245
e 35 38
e 35 39
e 35 40
e 35 42
e 35 43
e 35 46
e 35 47
e 35 49
e 35 52
e 35 54
e 35 57
e 35 59
e 35 60
e 35 63
e 35 64
e 35 67
e 35 68
e 35 72
e 35 76
e 35 79
e 35 83
e 35 84
e 35 87
e 35 89
e 35 90
e 35 91
e 35 95
e 35 99
e 35 100
e 35 106
e 35 107
e 35 111
e 35 116
e 35 118
e 35 125
e 35 128
e 35 130
e 35 150
e 35 159
e 35 160
e 35 162
e 35 169
e 35 171
e 35 176
e 35 180
e 35 184
e 35 187
e 35 188
e 35 194
e 35 199
e 35 204
e 35 211
e 35 212
e 35 217
e 35 220
e 35 225
e 35 227
e 35 232
e 35 235
e 35 241
e 35 244
e 35 247
e 36 37
e 36 40
e 36 45
e 36 47
e 36 48
e 36 50
e 36 51
e 36 52
e 36 56
e 36 58
e 36 61
e 36 65
e 36 69
e 36 71
e 36 76
e 36 80
e 36 82
e 36 85
e 36 91
e 36 94
e 36 99
e 36 101
e 36 103
e 36 105
e 36 111
e 36 123
e 36 139
e 36 144
e 36 153
e 36 154
e 36 155
e 36 156
e 36 174
e 36 176
e 36 180
e 36 183
e 36 185
e 36 193
e 36 202
e 36 205
e 36 214
e 36 215
e 36 216
e 36 221
e 36 222
e 36 233
e 36 235
e 36 243
e 36 245
e 37 39
e 37 40
e 37 42
e 37 44
e 37 46
e 37 48
e 37 49
e 37 56
e 37 57
e 37 58
e 37 62
e 37 64
e 37 65
e 37 66
e 37 67
e 37 68
e 37 69
e 37 71
e 37 74
e 37 79
e 37 82
e 37 89
e 37 90
e 37 92
e 37 93
e 37 95
e 37 105
e 37 107
e 37 110
e 37 118
e 37 134
e 37 142
e 37 149
e 37 154
e 37 155
e 37 160
e 37 163
e 37 168
e 37 172
e 37 186
e 37 187
e 37 188
e 37 208
e 37 214
e 37 221
e 37 222
e 37 227
e 37 228
e 37 241
e 37 249
e 38 39
e 38 41
e 38 43
e 38 44
e 38 49
e 38 54
e 38 56
e 38 57
e 38 58
e 38 60
e 38 61
e 38 62
e 38 67
e 38 70
e 38 75
e 38 79
e 38 87
e 38 104
e 38 115
e 38 116
e 38 129
e 38 145
e 38 147
e 38 152
e 38 213
e 38 219
e 39 40
e 39 47
e 39 49
e 39 54
e 39 59
e 39 60
e 39 67
e 39 70
e 39 80
e 39 82
e 39 86
e 39 88
e 39 95
e 39 101
e 39 108
e 39 109
e 39 110
e 39 119
e 39 123
e 39 127
e 39 133
e 39 135
e 39 137
e 39 143
e 39 160
e 39 162
e 39 163
e 39 174
e 39 202
e 39 204
e 39 211
e 39 247
e 39 249
e 40 42
e 40 43
e 40 52
e 40 54
e 40 55
e 40 57
e 40 58
e 40 67
e 40 68
e 40 73
e 40 75
e 40 76
e 40 79
e 40 82
e 40 90
e 40 92
e 40 93
e 40 97
e 40 109
e 40 112
e 40 118
e 40 119
e 40 120
e 40 125
e 40 140
e 40 142
e 40 143
e 40 148
e 40 152
e 40 158
e 40 167
e 40 169
e 40 174
e 40 184
e 40 189
e 40 208
e 40 213
e 40 218
e 40 227
e 40 246
e 41 43
e 41 50
e 41 52
e 41 54
e 41 62
e 41 69
e 41 70
e 41 71
e 41 76
e 41 82
e 41 83
e 41 84
e 41 95
e 41 103
e 41 105
e 41 108
e 41 109
e 41 111
e 41 123
e 41 126
e 41 128
e 41 136
e 41 157
e 41 162
e 41 168
e 41 172
e 41 178
e 41 179
e 41 181
e 41 183
e 41 188
e 41 198
e 41 207
e 41 213
e 41 232
e 41 235
e 41 236
e 41 237
e 41 238
e 42 44
e 42 45
e 42 46
e 42 49
e 42 51
e 42 53
e 42 55
e 42 56
e 42 59
e 42 60
e 42 71
e 42 76
e 42 82
e 42 83
e 42 94
e 42 99
e 42 109
e 42 117
e 42 119
e 42 120
e 42 130
e 42 141
e 42 145
e 42 146
e 42 157
e 42 169
e 42 173
e 42 174
e 42 185
e 42 220
e 42 236
e 42 245
e 42 248
e 42 249
e 43 50
e 43 51
e 43 56
e 43 67
e 43 68
e 43 69
e 43 75
e 43 76
e 43 78
e 43 81
e 43 86
e 43 100
e 43 111
e 43 115
e 43 117
e 43 128
e 43 154
e 43 156
e 43 163
e 43 166
e 43 168
e 43 170
e 43 175
e 43 178
e 43 190
e 43 198
e 43 206
e 43 221
e 43 223
e 43 233
e 43 242
e 44 47
e 44 48
e 44 56
e 44 59
e 44 61
e 44 63
e 44 74
e 44 79
e 44 85
e 44 87
e 44 91
e 44 94
e 44 101
e 44 103
e 44 104
e 44 105
e 44 106
e 44 107
e 44 112
e 44 122
e 44 123
e 44 130
e 44 145
e 44 148
e 44 152
e 44 158
e 44 159
e 44 164
e 44 169
e 44 176
e 44 182
e 44 185
e 44 195
e 44 196
e 44 197
e 44 201
e 44 204
e 44 213
e 44 220
e 44 224
e 44 225
e 44 226
e 44 232
e 44 234
e 44 238
e 44 243
e 45 48
e 45 55
e 45 56
e 45 60
e 45 63
e 45 64
e 45 73
e 45 79
e 45 81
e 45 88
e 45 98
e 45 112
e 45 133
e 45 142
e 45 161
e 45 168
e 45 171
e 45 177
e 45 181
e 45 184
e 45 187
e 45 192
e 45 222
e 45 230
e 45 235
e 45 248
e 46 52
e 46 55
e 46 61
e 46 68
e 46 77
e 46 85
e 46 88
e 46 92
e 46 94
e 46 105
e 46 108
e 46 121
e 46 125
e 46 134
e 46 135
e 46 139
e 46 144
e 46 146
e 46 150
e 46 154
e 46 155
e 46 160
e 46 166
e 46 188
e 46 192
e 46 197
e 46 204
e 46 212
e 46 217
e 46 222
e 46 225
e 46 238
e 46 247
e 46 248
e 47 51
e 47 53
e 47 54
e 47 60
e 47 61
e 47 62
e 47 63
e 47 66
e 47 69
e 47 75
e 47 79
e 47 87
e 47 89
e 47 94
e 47 96
e 47 97
e 47 98
e 47 101
e 47 102
e 47 105
e 47 124
e 47 130
e 47 142
e 47 144
e 47 151
e 47 152
e 47 157
e 47 167
e 47 169
e 47 172
e 47 174
e 47 180
e 47 184
e 47 185
e 47 186
e 47 191
e 47 193
e 47 200
e 47 207
e 47 224
e 47 226
e 47 229
e 47 240
e 47 243
e 48 63
e 48 74
e 48 80
e 48 88
e 48 94
e 48 95
e 48 99
e 48 119
e 48 136
e 48 138
e 48 144
e 48 157
e 48 166
e 48 170
e 48 177
e 48 192
e 48 206
e 48 214
e 48 223
e 48 236
e 49 51
e 49 53
e 49 54
e 49 62
e 49 65
e 49 66
e 49 71
e 49 77
e 49 81
e 49 84
e 49 92
e 49 95
e 49 101
e 49 102
e 49 105
e 49 106
e 49 119
e 49 121
e 49 124
e 49 128
e 49 130
e 49 136
e 49 143
e 49 159
e 49 163
e 49 181
e 49 182
e 49 185
e 49 189
e 49 194
e 49 197
e 49 203
e 49 230
e 49 231
e 49 246
e 49 250
e 50 53
e 50 60
e 50 66
e 50 73
e 50 82
e 50 84
e 50 90
e 50 92
e 50 98
e 50 100
e 50 103
e 50 111
e 50 114
e 50 121
e 50 126
e 50 133
e 50 139
e 50 144
e 50 152
e 50 157
e 50 159
e 50 198
e 50 207
e 50 215
e 50 218
e 50 232
e 50 249
e 51 58
e 51 59
e 51 63
e 51 64
e 51 65
e 51 72
e 51 75
e 51 76
e 51 78
e 51 82
e 51 88
e 51 90
e 51 91
e 51 94
e 51 97
e 51 101
e 51 103
e 51 105
e 51 113
e 51 115
e 51 132
e 51 136
e 51 152
e 51 156
e 51 174
e 51 175
e 51 182
e 51 187
e 51 195
e 51 197
e 51 206
e 51 209
e 51 216
e 51 231
e 51 234
e 51 239
e 51 240
e 51 244
e 52 55
e 52 58
e 52 81
e 52 99
e 52 136
e 52 150
e 52 196
e 52 241
e 52 244
e 53 55
e 53 59
e 53 70
e 53 73
e 53 83
e 53 85
e 53 86
e 53 93
e 53 120
e 53 135
e 53 138
e 53 140
e 53 141
e 53 148
e 53 154
e 53 160
e 53 165
e 53 182
e 53 191
e 53 201
e 53 204
e 53 208
e 53 228
e 53 234
e 53 242
e 53 251
e 54 61
e 54 65
e 54 71
e 54 72
e 54 77
e 54 81
e 54 100
e 54 103
e 54 118
e 54 124
e 54 131
e 54 137
e 54 143
e 54 146
e 54 153
e 54 168
e 54 170
e 54 177
e 54 196
e 54 219
e 55 57
e 55 59
e 55 62
e 55 65
e 55 66
e 55 69
e 55 77
e 55 78
e 55 79
e 55 82
e 55 83
e 55 84
e 55 94
e 55 95
e 55 99
e 55 101
e 55 104
e 55 106
e 55 115
e 55 126
e 55 128
e 55 144
e 55 160
e 55 165
e 55 169
e 55 191
e 55 200
e 55 202
e 55 210
e 55 229
e 55 230
e 55 233
e 56 60
e 56 61
e 56 68
e 56 74
e 56 75
e 56 79
e 56 81
e 56 83
e 56 84
e 56 95
e 56 97
e 56 109
e 56 126
e 56 148
e 56 151
e 56 167
e 56 177
e 56 183
e 56 190
e 56 202
e 56 205
e 56 221
e 56 228
e 57 58
e 57 61
e 57 62
e 57 70
e 57 72
e 57 74
e 57 78
e 57 85
e 57 88
e 57 94
e 57 100
e 57 102
e 57 113
e 57 120
e 57 125
e 57 127
e 57 134
e 57 141
e 57 153
e 57 162
e 57 167
e 57 186
e 57 209
e 57 211
e 57 212
e 57 213
e 57 222
e 57 234
e 57 235
e 57 239
e 57 242
e 58 92
e 58 99
e 58 108
e 58 127
e 58 129
e 58 152
e 58 204
e 58 210
e 58 219
e 58 245
e 58 247
e 59 60
e 59 61
e 59 62
e 59 69
e 59 71
e 59 85
e 59 96
e 59 103
e 59 110
e 59 144
e 59 145
e 59 151
e 59 165
e 59 166
e 59 167
e 59 178
e 59 201
e 59 204
e 59 210
e 59 215
e 59 222
e 59 238
e 59 241
e 59 243
e 59 247
e 60 63
e 60 64
e 60 74
e 60 78
e 60 81
e 60 83
e 60 86
e 60 95
e 60 97
e 60 106
e 60 110
e 60 117
e 60 126
e 60 142
e 60 186
e 60 187
e 60 201
e 60 203
e 60 206
e 60 216
e 60 230
e 60 235
e 60 242
e 61 65
e 61 71
e 61 73
e 61 77
e 61 81
e 61 86
e 61 93
e 61 94
e 61 100
e 61 123
e 61 129
e 61 149
e 61 161
e 61 169
e 61 184
e 61 185
e 61 200
e 61 226
e 61 240
e 62 71
e 62 74
e 62 75
e 62 83
e 62 91
e 62 101
e 62 114
e 62 122
e 62 126
e 62 129
e 62 134
e 62 144
e 62 152
e 62 158
e 62 166
e 62 175
e 62 177
e 62 181
e 62 193
e 62 195
e 62 204
e 62 211
e 62 214
e 62 215
e 62 223
e 62 234
e 63 64
e 63 72
e 63 78
e 63 87
e 63 95
e 63 107
e 63 117
e 63 132
e 63 133
e 63 137
e 63 141
e 63 146
e 63 153
e 63 171
e 63 174
e 63 210
e 63 241
e 64 67
e 64 71
e 64 72
e 64 74
e 64 78
e 64 92
e 64 97
e 64 98
e 64 99
e 64 101
e 64 105
e 64 107
e 64 109
e 64 110
e 64 118
e 64 124
e 64 132
e 64 133
e 64 137
e 64 140
e 64 144
e 64 172
e 64 176
e 64 179
e 64 192
e 64 199
e 64 200
e 64 214
e 64 220
e 64 223
e 64 248
e 65 71
e 65 90
e 65 135
e 65 163
e 65 176
e 65 218
e 65 231
e 66 73
e 66 91
e 66 93
e 66 97
e 66 114
e 66 148
e 66 154
e 66 178
e 66 217
e 66 228
e 66 245
e 67 91
e 67 108
e 67 112
e 67 121
e 67 129
e 67 130
e 67 136
e 67 138
e 67 145
e 67 153
e 67 185
e 67 187
e 67 194
e 67 200
e 67 211
e 67 216
e 67 218
e 67 225
e 67 234
e 68 81
e 68 83
e 68 84
e 68 89
e 68 91
e 68 100
e 68 103
e 68 105
e 68 110
e 68 112
e 68 115
e 68 116
e 68 121
e 68 122
e 68 124
e 68 135
e 68 160
e 68 173
e 68 177
e 68 187
e 68 198
e 68 209
e 68 214
e 68 220
e 68 223
e 68 224
e 68 226
e 68 227
e 68 229
e 68 235
e 69 70
e 69 78
e 69 86
e 69 91
e 69 100
e 69 107
e 69 108
e 69 109
e 69 125
e 69 132
e 69 143
e 69 146
e 69 149
e 69 180
e 69 206
e 69 209
e 69 214
e 69 224
e 69 251
e 70 74
e 70 90
e 70 98
e 70 115
e 70 121
e 70 122
e 70 126
e 70 137
e 70 139
e 70 144
e 70 145
e 70 147
e 70 155
e 70 166
e 70 176
e 70 186
e 70 187
e 70 205
e 70 208
e 70 212
e 70 220
e 70 224
e 70 227
e 70 232
e 70 246
e 70 248
e 71 87
e 71 97
e 71 102
e 71 108
e 71 121
e 71 126
e 71 143
e 71 146
e 71 148
e 71 150
e 71 153
e 71 178
e 71 235
e 71 237
e 71 245
e 71 250
e 71 251
e 72 84
e 72 89
e 72 94
e 72 101
e 72 108
e 72 110
e 72 112
e 72 114
e 72 117
e 72 127
e 72 147
e 72 156
e 72 171
e 72 196
e 72 219
e 72 223
e 72 239
e 72 241
e 73 80
e 73 86
e 73 98
e 73 122
e 73 125
e 73 135
e 73 139
e 73 140
e 73 150
e 73 204
e 73 209
e 73 232
e 73 237
e 74 76
e 74 84
e 74 87
e 74 89
e 74 91
e 74 92
e 74 96
e 74 108
e 74 111
e 74 114
e 74 118
e 74 120
e 74 139
e 74 179
e 74 180
e 74 183
e 74 203
e 74 223
e 74 230
e 74 233
e 74 248
e 75 95
e 75 97
e 75 111
e 75 120
e 75 121
e 75 132
e 75 134
e 75 150
e 75 170
e 75 173
e 75 180
e 75 187
e 75 217
e 75 223
e 75 247
e 76 77
e 76 84
e 76 85
e 76 95
e 76 98
e 76 100
e 76 103
e 76 129
e 76 134
e 76 135
e 76 166
e 76 193
e 76 225
e 76 237
e 76 248
e 76 250
e 77 79
e 77 80
e 77 98
e 77 99
e 77 114
e 77 116
e 77 126
e 77 133
e 77 135
e 77 148
e 77 156
e 77 165
e 77 181
e 77 185
e 77 233
e 78 90
e 78 91
e 78 104
e 78 109
e 78 119
e 78 120
e 78 124
e 78 127
e 78 131
e 78 132
e 78 143
e 78 173
e 78 180
e 78 199
e 78 217
e 78 221
e 78 250
e 79 80
e 79 90
e 79 96
e 79 120
e 79 143
e 79 148
e 79 155
e 79 156
e 79 158
e 79 170
e 79 171
e 79 172
e 79 188
e 79 190
e 79 195
e 79 205
e 79 208
e 79 213
e 79 227
e 79 228
e 79 245
e 80 83
e 80 87
e 80 124
e 80 155
e 80 161
e 80 167
e 80 172
e 80 198
e 81 86
e 81 110
e 81 112
e 81 141
e 81 168
e 81 195
e 81 215
e 81 223
e 81 224
e 81 239
e 82 83
e 82 107
e 82 114
e 82 122
e 82 123
e 82 133
e 82 143
e 82 147
e 82 170
e 82 181
e 82 194
e 82 215
e 82 240
e 82 244
e 83 85
e 83 88
e 83 113
e 83 116
e 83 121
e 83 127
e 83 161
e 83 180
e 83 203
e 83 205
e 83 233
e 83 237
e 83 242
e 83 244
e 84 123
e 84 141
e 84 147
e 84 151
e 84 154
e 84 156
e 84 199
e 84 210
e 84 217
e 84 218
e 84 229
e 84 233
e 84 242
e 84 247
e 85 88
e 85 102
e 85 119
e 85 126
e 85 145
e 85 155
e 85 164
e 85 173
e 85 208
e 85 222
e 85 223
e 85 230
e 85 231
e 85 240
e 85 249
e 86 102
e 86 118
e 86 123
e 86 126
e 86 127
e 86 128
e 86 134
e 86 142
e 86 153
e 86 212
e 86 228
e 87 88
e 87 109
e 87 138
e 87 164
e 87 170
e 87 177
e 87 184
e 87 187
e 88 108
e 88 129
e 88 135
e 88 137
e 88 155
e 88 157
e 88 160
e 88 162
e 88 183
e 88 211
e 88 224
e 88 248
e 89 106
e 89 145
e 89 147
e 89 209
e 89 219
e 90 112
e 90 115
e 90 128
e 90 141
e 90 149
e 90 168
e 90 181
e 90 193
e 90 204
e 90 216
e 90 218
e 91 99
e 91 113
e 91 126
e 91 130
e 91 154
e 91 159
e 91 172
e 91 183
e 91 192
e 91 202
e 91 205
e 91 213
e 91 237
e 92 99
e 92 104
e 92 110
e 92 124
e 92 132
e 92 133
e 92 134
e 92 136
e 92 137
e 92 142
e 92 143
e 92 146
e 92 147
e 92 149
e 92 156
e 92 157
e 92 159
e 92 161
e 92 175
e 92 178
e 92 181
e 92 185
e 92 186
e 92 191
e 92 203
e 92 213
e 92 231
e 92 232
e 92 235
e 93 97
e 93 105
e 93 113
e 93 120
e 93 137
e 93 144
e 93 150
e 93 250
e 94 102
e 94 103
e 94 121
e 94 132
e 94 133
e 94 156
e 94 158
e 94 188
e 94 205
e 94 209
e 94 249
e 94 250
e 95 106
e 95 129
e 95 134
e 95 153
e 95 158
e 95 161
e 95 166
e 95 168
e 95 171
e 95 194
e 95 202
e 95 239
e 96 106
e 96 116
e 96 118
e 96 124
e 96 131
e 96 137
e 96 138
e 96 159
e 96 165
e 96 178
e 96 180
e 96 192
e 96 212
e 97 102
e 97 104
e 97 108
e 97 113
e 97 114
e 97 125
e 97 128
e 97 129
e 97 136
e 97 139
e 97 148
e 97 156
e 97 159
e 97 168
e 97 186
e 97 195
e 97 202
e 97 212
e 97 222
e 97 225
e 98 101
e 98 112
e 98 115
e 98 116
e 98 138
e 98 145
e 98 147
e 98 158
e 98 162
e 98 164
e 98 173
e 98 177
e 98 203
e 98 208
e 98 209
e 98 211
e 98 239
e 99 100
e 99 156
e 99 158
e 99 192
e 99 218
e 100 104
e 100 140
e 100 158
e 100 161
e 100 196
e 100 241
e 100 245
e 101 104
e 101 133
e 101 135
e 101 136
e 101 155
e 101 164
e 101 174
e 101 175
e 101 184
e 101 185
e 101 188
e 101 190
e 101 198
e 101 219
e 101 230
e 101 234
e 101 235
e 101 237
e 101 249
e 102 121
e 102 125
e 102 131
e 102 179
e 102 207
e 102 210
e 102 216
e 102 223
e 102 224
e 102 244
e 103 114
e 103 136
e 103 138
e 103 140
e 103 149
e 103 150
e 103 151
e 103 173
e 103 189
e 103 194
e 103 208
e 103 222
e 103 227
e 103 242
e 103 251
e 104 118
e 104 122
e 104 163
e 104 171
e 104 189
e 104 195
e 104 218
e 104 220
e 104 230
e 105 138
e 105 148
e 105 159
e 105 182
e 105 191
e 105 192
e 105 217
e 105 240
e 106 111
e 106 115
e 106 155
e 106 166
e 106 179
e 106 190
e 106 227
e 107 109
e 107 154
e 107 233
e 108 124
e 108 129
e 108 140
e 108 152
e 108 228
e 108 235
e 109 111
e 109 113
e 109 128
e 109 138
e 109 141
e 109 146
e 109 152
e 109 190
e 109 206
e 109 210
e 109 211
e 109 218
e 109 246
e 110 120
e 110 176
e 110 183
e 110 186
e 110 199
e 110 216
e 110 226
e 111 112
e 111 116
e 111 119
e 111 128
e 111 141
e 111 144
e 111 157
e 111 160
e 111 161
e 111 165
e 111 175
e 111 208
e 111 211
e 111 221
e 111 238
e 111 250
e 111 251
e 112 118
e 112 123
e 112 152
e 112 154
e 112 174
e 112 181
e 112 184
e 112 231
e 112 236
e 113 118
e 113 151
e 113 174
e 113 179
e 113 216
e 113 221
e 113 225
e 113 240
e 113 244
e 113 245
e 114 115
e 114 118
e 114 119
e 114 134
e 114 164
e 114 172
e 114 192
e 114 201
e 114 214
e 114 244
e 114 246
e 114 247
e 115 145
e 115 151
e 115 157
e 115 170
e 115 199
e 116 117
e 116 125
e 116 151
e 116 154
e 116 162
e 116 172
e 116 183
e 116 221
e 116 223
e 117 133
e 117 142
e 117 170
e 117 209
e 117 223
e 117 231
e 118 128
e 118 155
e 118 162
e 118 165
e 118 170
e 118 171
e 118 176
e 118 190
e 118 191
e 118 193
e 118 200
e 118 220
e 118 222
e 118 227
e 118 234
e 118 235
e 118 243
e 119 120
e 119 122
e 119 132
e 119 148
e 119 155
e 119 182
e 119 189
e 119 211
e 119 214
e 119 231
e 119 245
e 120 138
e 120 142
e 120 154
e 120 158
e 120 166
e 120 169
e 120 178
e 120 179
e 120 180
e 120 199
e 120 207
e 120 251
e 121 123
e 121 131
e 121 150
e 121 151
e 121 158
e 121 188
e 121 199
e 121 204
e 121 218
e 122 153
e 122 183
e 122 205
e 122 215
e 122 226
e 122 248
e 123 127
e 123 149
e 123 191
e 123 201
e 123 225
e 123 240
e 123 250
e 124 139
e 124 151
e 124 163
e 124 197
e 124 222
e 124 229
e 125 132
e 125 150
e 125 160
e 125 162
e 125 163
e 125 164
e 125 170
e 125 172
e 125 196
e 125 200
e 125 207
e 125 217
e 125 218
e 125 233
e 125 235
e 125 236
e 125 242
e 126 127
e 126 128
e 126 132
e 126 169
e 126 193
e 126 197
e 126 209
e 126 228
e 127 130
e 127 133
e 127 146
e 127 148
e 127 170
e 127 171
e 127 217
e 127 234
e 128 129
e 128 131
e 128 162
e 128 168
e 128 185
e 128 187
e 128 189
e 128 216
e 128 223
e 129 159
e 129 177
e 129 197
e 130 141
e 130 144
e 130 175
e 130 215
e 130 240
e 130 243
e 131 150
e 131 153
e 131 203
e 131 247
e 132 135
e 132 144
e 132 195
e 132 197
e 132 198
e 132 201
e 132 208
e 132 215
e 132 225
e 133 139
e 133 164
e 133 168
e 133 175
e 133 183
e 133 184
e 133 187
e 133 205
e 133 217
e 133 232
e 133 236
e 133 246
e 134 138
e 134 145
e 134 161
e 134 164
e 134 178
e 134 195
e 134 220
e 134 227
e 134 248
e 135 146
e 135 191
e 135 207
e 135 222
e 135 241
e 136 147
e 136 151
e 136 159
e 136 221
e 136 228
e 136 249
e 136 251
e 137 148
e 137 225
e 137 246
e 138 154
e 138 155
e 138 172
e 138 194
e 138 195
e 138 198
e 138 232
e 139 153
e 139 163
e 139 171
e 139 187
e 139 219
e 139 233
e 140 142
e 140 177
e 140 183
e 140 189
e 140 210
e 140 212
e 140 219
e 140 230
e 141 147
e 141 151
e 141 162
e 141 165
e 141 176
e 141 183
e 141 185
e 141 221
e 141 235
e 141 239
e 141 240
e 141 243
e 141 250
e 142 149
e 142 152
e 142 154
e 142 186
e 142 207
e 142 218
e 142 244
e 143 146
e 143 166
e 143 190
e 143 201
e 143 233
e 144 150
e 144 154
e 144 158
e 144 179
e 144 185
e 144 188
e 144 207
e 144 220
e 144 246
e 145 194
e 145 224
e 145 229
e 145 231
e 145 249
e 146 163
e 146 164
e 146 175
e 146 201
e 146 238
e 146 245
e 147 189
e 147 196
e 147 213
e 147 220
e 148 196
e 148 249
e 148 251
e 149 153
e 149 193
e 149 207
e 149 211
e 150 163
e 150 176
e 150 186
e 150 193
e 150 202
e 150 232
e 150 236
e 150 240
e 151 161
e 151 164
e 151 178
e 151 194
e 151 200
e 151 201
e 152 164
e 152 169
e 152 174
e 152 207
e 152 231
e 153 158
e 153 163
e 153 175
e 153 189
e 153 198
e 153 203
e 153 250
e 154 157
e 154 191
e 154 196
e 154 247
e 155 161
e 155 201
e 155 210
e 156 158
e 156 165
e 156 172
e 156 190
e 156 214
e 156 216
e 156 226
e 156 243
e 156 250
e 157 166
e 157 178
e 157 206
e 157 226
e 157 232
e 158 182
e 158 184
e 158 209
e 158 215
e 159 174
e 159 181
e 159 199
e 159 214
e 160 204
e 160 251
e 161 180
e 161 227
e 162 202
e 162 217
e 162 230
e 163 186
e 163 196
e 163 200
e 163 207
e 163 228
e 163 242
e 164 236
e 164 248
e 165 220
e 165 247
e 166 176
e 166 181
e 166 196
e 166 199
e 166 209
e 166 212
e 166 227
e 166 236
e 166 250
e 167 239
e 167 249
e 168 178
e 168 192
e 168 194
e 168 210
e 168 226
e 168 234
e 168 237
e 169 186
e 169 191
e 169 197
e 169 219
e 169 222
e 170 186
e 170 195
e 170 196
e 170 199
e 170 203
e 170 205
e 170 219
e 170 223
e 170 227
e 170 251
e 171 250
e 172 229
e 172 230
e 173 238
e 174 190
e 174 193
e 174 214
e 174 238
e 174 243
e 175 195
e 175 208
e 175 226
e 176 188
e 176 203
e 176 218
e 176 221
e 176 246
e 177 197
e 178 185
e 178 200
e 178 206
e 178 225
e 179 184
e 179 189
e 179 242
e 180 202
e 180 206
e 180 213
e 180 219
e 181 197
e 181 214
e 182 191
e 182 216
e 183 188
e 183 191
e 183 212
e 183 213
e 183 229
e 183 247
e 186 197
e 186 217
e 186 218
e 186 246
e 187 226
e 187 237
e 188 194
e 188 205
e 188 206
e 188 212
e 189 191
e 189 192
e 189 250
e 190 194
e 190 198
e 190 207
e 190 213
e 190 215
e 190 250
e 191 247
e 192 202
e 192 207
e 193 234
e 195 202
e 195 219
e 195 221
e 195 229
e 195 248
e 196 234
e 196 239
e 197 241
e 198 216
e 198 217
e 198 229
e 198 249
e 200 239
e 201 237
e 202 213
e 202 217
e 203 240
e 203 243
e 204 221
e 205 222
e 205 225
e 206 235
e 206 237
e 206 239
e 206 246
e 207 222
e 207 233
e 207 242
e 208 231
e 209 230
e 209 231
e 210 246
e 211 227
e 211 244
e 212 239
e 213 228
e 214 224
e 215 232
e 215 245
e 216 237
e 216 242
e 218 219
e 219 243
e 220 236
e 221 239
e 221 241
e 222 228
e 223 226
e 223 244
e 224 236
e 224 238
e 225 230
e 225 231
e 228 234
e 231 233
e 232 248
e 234 241
e 234 247
e 234 248
